\ This file has been generated by DOcplex
\ ENCODING=ISO-8859-1
\Problem name: random_problem.lp

Minimize
 obj: - 788 x0 - 394 x1 - 197 x2 + 448 x3 + 224 x4 + 112 x5 + 1300 x6 + 650 x7
      + 325 x8 + 3648 x9 + 1824 x10 + 912 x11 + 2468 x12 + 1234 x13 + 617 x14
      + 260 x15 + 130 x16 + 65 x17 + 396 x18 + 198 x19 + 99 x20 - 320 x21
      - 160 x22 - 80 x23 + [ 1440 x0^2 + 1440 x0*x1 + 720 x0*x2 + 448 x0*x3
      + 224 x0*x4 + 112 x0*x5 - 192 x0*x6 - 96 x0*x7 - 48 x0*x8 + 1600 x0*x9
      + 800 x0*x10 + 400 x0*x11 - 320 x0*x12 - 160 x0*x13 - 80 x0*x14
      + 320 x0*x15 + 160 x0*x16 + 80 x0*x17 - 384 x0*x18 - 192 x0*x19
      - 96 x0*x20 + 360 x1^2 + 360 x1*x2 + 224 x1*x3 + 112 x1*x4 + 56 x1*x5
      - 96 x1*x6 - 48 x1*x7 - 24 x1*x8 + 800 x1*x9 + 400 x1*x10 + 200 x1*x11
      - 160 x1*x12 - 80 x1*x13 - 40 x1*x14 + 160 x1*x15 + 80 x1*x16 + 40 x1*x17
      - 192 x1*x18 - 96 x1*x19 - 48 x1*x20 + 90 x2^2 + 112 x2*x3 + 56 x2*x4
      + 28 x2*x5 - 48 x2*x6 - 24 x2*x7 - 12 x2*x8 + 400 x2*x9 + 200 x2*x10
      + 100 x2*x11 - 80 x2*x12 - 40 x2*x13 - 20 x2*x14 + 80 x2*x15 + 40 x2*x16
      + 20 x2*x17 - 96 x2*x18 - 48 x2*x19 - 24 x2*x20 + 672 x3^2 + 672 x3*x4
      + 336 x3*x5 + 256 x3*x6 + 128 x3*x7 + 64 x3*x8 + 1024 x3*x9 + 512 x3*x10
      + 256 x3*x11 + 3520 x3*x12 + 1760 x3*x13 + 880 x3*x14 + 832 x3*x15
      + 416 x3*x16 + 208 x3*x17 + 512 x3*x18 + 256 x3*x19 + 128 x3*x20
      + 1088 x3*x21 + 544 x3*x22 + 272 x3*x23 + 168 x4^2 + 168 x4*x5 + 128 x4*x6
      + 64 x4*x7 + 32 x4*x8 + 512 x4*x9 + 256 x4*x10 + 128 x4*x11 + 1760 x4*x12
      + 880 x4*x13 + 440 x4*x14 + 416 x4*x15 + 208 x4*x16 + 104 x4*x17
      + 256 x4*x18 + 128 x4*x19 + 64 x4*x20 + 544 x4*x21 + 272 x4*x22
      + 136 x4*x23 + 42 x5^2 + 64 x5*x6 + 32 x5*x7 + 16 x5*x8 + 256 x5*x9
      + 128 x5*x10 + 64 x5*x11 + 880 x5*x12 + 440 x5*x13 + 220 x5*x14
      + 208 x5*x15 + 104 x5*x16 + 52 x5*x17 + 128 x5*x18 + 64 x5*x19 + 32 x5*x20
      + 272 x5*x21 + 136 x5*x22 + 68 x5*x23 + 5760 x6^2 + 5760 x6*x7
      + 2880 x6*x8 + 2624 x6*x9 + 1312 x6*x10 + 656 x6*x11 - 3968 x6*x12
      - 1984 x6*x13 - 992 x6*x14 + 10816 x6*x15 + 5408 x6*x16 + 2704 x6*x17
      + 768 x6*x18 + 384 x6*x19 + 192 x6*x20 + 1984 x6*x21 + 992 x6*x22
      + 496 x6*x23 + 1440 x7^2 + 1440 x7*x8 + 1312 x7*x9 + 656 x7*x10
      + 328 x7*x11 - 1984 x7*x12 - 992 x7*x13 - 496 x7*x14 + 5408 x7*x15
      + 2704 x7*x16 + 1352 x7*x17 + 384 x7*x18 + 192 x7*x19 + 96 x7*x20
      + 992 x7*x21 + 496 x7*x22 + 248 x7*x23 + 360 x8^2 + 656 x8*x9 + 328 x8*x10
      + 164 x8*x11 - 992 x8*x12 - 496 x8*x13 - 248 x8*x14 + 2704 x8*x15
      + 1352 x8*x16 + 676 x8*x17 + 192 x8*x18 + 96 x8*x19 + 48 x8*x20
      + 496 x8*x21 + 248 x8*x22 + 124 x8*x23 + 3808 x9^2 + 3808 x9*x10
      + 1904 x9*x11 + 5888 x9*x12 + 2944 x9*x13 + 1472 x9*x14 + 2496 x9*x15
      + 1248 x9*x16 + 624 x9*x17 + 1280 x9*x18 + 640 x9*x19 + 320 x9*x20
      + 1856 x9*x21 + 928 x9*x22 + 464 x9*x23 + 952 x10^2 + 952 x10*x11
      + 2944 x10*x12 + 1472 x10*x13 + 736 x10*x14 + 1248 x10*x15 + 624 x10*x16
      + 312 x10*x17 + 640 x10*x18 + 320 x10*x19 + 160 x10*x20 + 928 x10*x21
      + 464 x10*x22 + 232 x10*x23 + 238 x11^2 + 1472 x11*x12 + 736 x11*x13
      + 368 x11*x14 + 624 x11*x15 + 312 x11*x16 + 156 x11*x17 + 320 x11*x18
      + 160 x11*x19 + 80 x11*x20 + 464 x11*x21 + 232 x11*x22 + 116 x11*x23
      + 26304 x12^2 + 26304 x12*x13 + 13152 x12*x14 - 4288 x12*x15
      - 2144 x12*x16 - 1072 x12*x17 + 4736 x12*x18 + 2368 x12*x19 + 1184 x12*x20
      + 14336 x12*x21 + 7168 x12*x22 + 3584 x12*x23 + 6576 x13^2 + 6576 x13*x14
      - 2144 x13*x15 - 1072 x13*x16 - 536 x13*x17 + 2368 x13*x18 + 1184 x13*x19
      + 592 x13*x20 + 7168 x13*x21 + 3584 x13*x22 + 1792 x13*x23 + 1644 x14^2
      - 1072 x14*x15 - 536 x14*x16 - 268 x14*x17 + 1184 x14*x18 + 592 x14*x19
      + 296 x14*x20 + 3584 x14*x21 + 1792 x14*x22 + 896 x14*x23 + 11456 x15^2
      + 11456 x15*x16 + 5728 x15*x17 - 1536 x15*x18 - 768 x15*x19 - 384 x15*x20
      - 1472 x15*x21 - 736 x15*x22 - 368 x15*x23 + 2864 x16^2 + 2864 x16*x17
      - 768 x16*x18 - 384 x16*x19 - 192 x16*x20 - 736 x16*x21 - 368 x16*x22
      - 184 x16*x23 + 716 x17^2 - 384 x17*x18 - 192 x17*x19 - 96 x17*x20
      - 368 x17*x21 - 184 x17*x22 - 92 x17*x23 + 1568 x18^2 + 1568 x18*x19
      + 784 x18*x20 + 2432 x18*x21 + 1216 x18*x22 + 608 x18*x23 + 392 x19^2
      + 392 x19*x20 + 1216 x19*x21 + 608 x19*x22 + 304 x19*x23 + 98 x20^2
      + 608 x20*x21 + 304 x20*x22 + 152 x20*x23 + 5632 x21^2 + 5632 x21*x22
      + 2816 x21*x23 + 1408 x22^2 + 1408 x22*x23 + 352 x23^2 ]/2
Subject To
 c0: 4 x0 + 2 x1 + x2 + 4 x3 + 2 x4 + x5 + 4 x6 + 2 x7 + x8 + 4 x9 + 2 x10 + x11
     + 4 x12 + 2 x13 + x14 + 4 x15 + 2 x16 + x17 + 4 x18 + 2 x19 + x20 + 4 x21
     + 2 x22 + x23 = 7

Bounds
 0 <= x0 <= 1
 0 <= x1 <= 1
 0 <= x2 <= 1
 0 <= x3 <= 1
 0 <= x4 <= 1
 0 <= x5 <= 1
 0 <= x6 <= 1
 0 <= x7 <= 1
 0 <= x8 <= 1
 0 <= x9 <= 1
 0 <= x10 <= 1
 0 <= x11 <= 1
 0 <= x12 <= 1
 0 <= x13 <= 1
 0 <= x14 <= 1
 0 <= x15 <= 1
 0 <= x16 <= 1
 0 <= x17 <= 1
 0 <= x18 <= 1
 0 <= x19 <= 1
 0 <= x20 <= 1
 0 <= x21 <= 1
 0 <= x22 <= 1
 0 <= x23 <= 1

Binaries
 x0 x1 x2 x3 x4 x5 x6 x7 x8 x9 x10 x11 x12 x13 x14 x15 x16 x17 x18 x19 x20 x21
 x22 x23
End
